p cnf 24 56
a 6 15 0
e 1 2 3 4 5 7 8 9 10 11 12 13 14 16 17 18 19 20 21 22 23 24 0
-3 1 0
-3 2 0
-1 -2 3 0
5 -3 0
5 4 0
3 -4 -5 0
-8 7 0
-8 -1 0
-7 1 8 0
9 6 0
9 8 0
-6 -8 -9 0
10 5 0
10 -9 0
-5 9 -10 0
-12 -11 0
-12 -2 0
11 2 12 0
-2 -6 -13 0
2 6 -13 0
-2 6 13 0
2 -6 13 0
-15 4 0
-15 14 0
-4 -14 15 0
-16 15 0
-16 6 0
-15 -6 16 0
-17 16 0
-17 -15 0
-16 15 17 0
18 -14 0
18 6 0
14 -6 -18 0
20 -18 0
20 19 0
18 -19 -20 0
-21 -17 0
-21 20 0
17 -20 21 0
-22 -13 0
-22 21 0
13 -21 22 0
-12 -22 -23 0
12 22 -23 0
-12 22 23 0
12 -22 23 0
-24 10 0
-24 23 0
-10 -23 24 0
-4 6 1 0
-13 4 16 -2 11 8 -6 0
12 -11 -19 -13 0
23 -13 -20 22 1 12 0
-3 1 0
24 0
